max_width = 29;
n_blocks = 24;
width = [5, 5, 5, 4, 4, 4, 4, 4, 4, 4, 4, 4, 3, 3, 3, 3, 3, 3, 3, 3, 3, 3, 3, 3];
height = [17, 8, 4, 20, 18, 15, 9, 7, 6, 5, 4, 3, 20, 18, 15, 11, 10, 9, 8, 7, 6, 5, 4, 3];
